18 6
38 84 75 64 47 60
1 1 4 4 1 1 3 3 5 1 5 5 5 1 4 2 4 1
11 21 19 17 12 12
2 16 7 18 2 16
10 5 4 10 10 10
6 13 6 19 6 18
16 1 9 8 16 10
10 5 4 12 10 12
10 7 5 15 10 15
9 17 11 16 9 13
15 12 11 7 15 3
12 4 5 9 12 9
17 2 10 8 17 10
11 6 4 9 11 8
13 3 6 9 13 9
10 6 4 14 10 14
7 17 9 17 7 14
1 17 8 21 1 18
5 11 4 17 5 16
5 15 7 16 5 13
20 9 14 1 20 5
